(set-info :smt-lib-version 2.6)
(set-logic LRA)
(set-info :source |
   Monniaux, David; Quantifier Elimination by Lazy Model Enumeration, CAV 2010
|)
(set-info :category "random")
; ./Mjollnir_examples/B2/formula_102.m
(set-info :status sat)
(assert
 (forall ((|v11:0| Real) )(exists ((|v10:1| Real) )(forall ((|v9:2| Real) )(exists ((|v8:3| Real) )(forall ((|v7:4| Real) )(exists ((|v6:5| Real) )(forall ((|v5:6| Real) )(exists ((|v4:7| Real) )(forall ((|v3:8| Real) )(exists ((|v2:9| Real) )(forall ((|v1:10| Real) )(exists ((|v0:11| Real) )(let ((?x44 10))
(let ((?x339 (+ (+ (* (- 5) |v2:9|) (* (- 6) |v2:9|)) (* (- 4) |v7:4|))))
(let ((?x171 (- 10)))
(let ((?x331 (+ (+ (* (- 1) |v8:3|) (* (- 3) |v4:7|)) (* 0 |v3:8|))))
(let (($x345 (and (<= (+ ?x331 (* (- 9) |v0:11|)) ?x171) (<= (+ ?x339 (* 8 |v4:7|)) ?x44))))
(let ((?x63 5))
(let ((?x323 (+ (+ (* 7 |v4:7|) (* 14 |v4:7|)) (* 15 |v6:5|))))
(let ((?x143 (- 2)))
(let ((?x317 (+ (+ (* (- 15) |v5:6|) (* ?x63 |v4:7|)) (* (- 16) |v5:6|))))
(let (($x327 (and (<= (+ ?x317 |v4:7|) ?x143) (<= (+ ?x323 (* 15 |v10:1|)) ?x63))))
(let ((?x39 11))
(let ((?x307 (+ (+ (* (- 9) |v1:10|) (* 2 |v5:6|)) (* (- 20) |v4:7|))))
(let ((?x212 (- 20)))
(let ((?x298 (+ (+ (* 19 |v5:6|) (* 20 |v8:3|)) (* (- 7) |v11:0|))))
(let ((?x34 14))
(let ((?x290 (* ?x34 |v4:7|)))
(let ((?x172 (* ?x171 |v11:0|)))
(let ((?x291 (+ (+ (+ (* (- 19) |v11:0|) (* 6 |v4:7|)) ?x172) ?x290)))
(let (($x302 (or (<= ?x291 18) (<= (+ ?x298 (* (- 7) |v5:6|)) ?x212))))
(let (($x348 (or $x302 (and (<= (+ ?x307 (* (- 12) |v0:11|)) ?x39) (or $x327 $x345)))))
(let ((?x10 0))
(let ((?x281 (+ (+ (* 6 |v3:8|) (* (- 16) |v1:10|)) (* ?x171 |v7:4|))))
(let ((?x258 (- 3)))
(let ((?x94 3))
(let ((?x136 (* ?x94 |v9:2|)))
(let ((?x272 (+ (+ (+ (* ?x171 |v4:7|) (* (- 18) |v7:4|)) ?x136) (* (- 1) |v1:10|))))
(let ((?x153 (- 17)))
(let ((?x264 (+ (+ (+ (* ?x258 |v11:0|) (* ?x258 |v10:1|)) (* (- 16) |v2:9|)) (* ?x143 |v10:1|))))
(let ((?x56 12))
(let ((?x66 (- 4)))
(let ((?x148 (* ?x66 |v11:0|)))
(let ((?x255 (+ (+ (+ (* (- 7) |v2:9|) (* 20 |v5:6|)) ?x148) (* 16 |v5:6|))))
(let ((?x178 (- 7)))
(let ((?x245 (+ (+ (+ (* ?x178 |v3:8|) (* 17 |v11:0|)) (* ?x10 |v2:9|)) (* (- 5) |v5:6|))))
(let ((?x184 (* ?x153 |v10:1|)))
(let ((?x237 (+ (+ (+ (* 19 |v7:4|) (* 13 |v3:8|)) ?x184) (* ?x143 |v5:6|))))
(let (($x267 (and (and (<= ?x237 ?x34) (<= ?x245 ?x178)) (or (<= ?x255 ?x56) (<= ?x264 ?x153)))))
(let ((?x223 (+ (+ (* 13 |v11:0|) (* ?x66 |v4:7|)) (* (- 9) |v5:6|))))
(let ((?x64 (* ?x63 |v6:5|)))
(let (($x218 (<= (+ (+ (+ (* ?x153 |v3:8|) (* ?x212 |v5:6|)) (* ?x94 |v11:0|)) ?x64) ?x39)))
(let ((?x205 (+ (+ (* (- 14) |v11:0|) (* (- 18) |v10:1|)) (* (- 19) |v9:2|))))
(let ((?x98 2))
(let ((?x197 (+ (+ (* (- 9) |v8:3|) (* 6 |v5:6|)) (* (- 1) |v4:7|))))
(let (($x209 (or (<= (+ ?x197 (* (- 19) |v7:4|)) ?x98) (<= (+ ?x205 (* ?x98 |v0:11|)) ?x56))))
(let ((?x188 (* (- 18) |v7:4|)))
(let ((?x189 (+ (+ (+ (* 19 |v11:0|) (* 6 |v10:1|)) ?x184) ?x188)))
(let ((?x179 (* ?x178 |v3:8|)))
(let (($x181 (<= (+ (+ (+ ?x172 (* (- 11) |v11:0|)) (* ?x98 |v11:0|)) ?x179) ?x44)))
(let ((?x162 (- 1)))
(let ((?x163 (* ?x162 |v8:3|)))
(let ((?x166 (+ (+ (+ (* ?x10 |v2:9|) (* 7 |v11:0|)) ?x163) (* 20 |v6:5|))))
(let ((?x14 (- 9)))
(let ((?x155 (+ (+ (+ ?x148 (* 13 |v5:6|)) (* (- 15) |v8:3|)) (* ?x153 |v0:11|))))
(let (($x192 (or (or (<= ?x155 ?x14) (<= ?x166 (- 8))) (and $x181 (<= ?x189 ?x44)))))
(let (($x231 (or $x192 (or $x209 (or $x218 (<= (+ ?x223 (* 9 |v4:7|)) ?x63))))))
(let ((?x30 (- 15)))
(let ((?x145 (+ (+ (+ (* ?x10 |v5:6|) ?x136) (* (- 19) |v4:7|)) (* ?x143 |v7:4|))))
(let ((?x47 (- 6)))
(let ((?x128 (+ (+ (* ?x56 |v6:5|) (* 19 |v1:10|)) (* 20 |v0:11|))))
(let ((?x120 13))
(let ((?x118 (* ?x30 |v8:3|)))
(let ((?x119 (+ (+ (+ |v6:5| (* (- 16) |v2:9|)) (* 4 |v7:4|)) ?x118)))
(let ((?x107 (+ (+ (+ (* ?x98 |v3:8|) (* 6 |v10:1|)) (* ?x39 |v0:11|)) (* 19 |v9:2|))))
(let ((?x91 (+ (+ (* (- 11) |v9:2|) (* (- 16) |v0:11|)) (* (- 14) |v2:9|))))
(let (($x110 (and (<= (+ ?x91 (* (- 14) |v9:2|)) ?x94) (<= ?x107 17))))
(let ((?x77 7))
(let ((?x76 (+ (+ (+ (* ?x10 |v7:4|) (* ?x44 |v8:3|)) (* 15 |v9:2|)) (* ?x47 |v4:7|))))
(let ((?x65 (+ (+ (+ (* (- 13) |v10:1|) (* ?x56 |v0:11|)) (* ?x10 |v4:7|)) ?x64)))
(let ((?x46 (+ (+ (+ (* ?x30 |v3:8|) (* ?x34 |v1:10|)) (* ?x39 |v8:3|)) (* ?x44 |v0:11|))))
(let ((?x25 6))
(let ((?x24 (+ (+ (+ (* ?x10 |v9:2|) (* ?x14 |v11:0|)) (* ?x10 |v7:4|)) (* (- 16) |v4:7|))))
(let (($x80 (and (or (<= ?x24 ?x25) (<= ?x46 ?x47)) (and (<= ?x65 ?x66) (<= ?x76 ?x77)))))
(let (($x147 (and (or $x80 (or $x110 (or (<= ?x119 ?x120) (<= (+ ?x128 ?x64) ?x47)))) (<= ?x145 ?x30))))
(or (or $x147 (and $x231 (or $x267 (<= ?x272 ?x258)))) (and (<= (+ ?x281 (* ?x44 |v3:8|)) ?x10) $x348))))))))))))))))))))))))))))))))))))))))))))))))))))))))))))))))))))))))))))
)
)
)
)
)
)
)
)
)
)
)
)
(check-sat)
(exit)

